proyfinal/src/viki/013/experimentInOfficeAgust.take6.output/4e575812-9dd6-4ee9-bc49-7a3bf3556619.als.out
Reading from standard input... Use '--help' for help.
============================[ Problem Statistics ]=============================
|                                                                             |
|  Number of variables:         87638                                         |
|  Number of clauses:          161767                                         |
|  Parse time:                   0.03 s                                       |
|                                                                             |
============================[ Search Statistics ]==============================
| Conflicts |          ORIGINAL         |          LEARNT          | Progress |
|           |    Vars  Clauses Literals |    Limit  Clauses Lit/Cl |          |
===============================================================================
|       100 |   62300   104932   262147 |    38475      100     29 | 28.912 % |
|       250 |   62300   104932   262147 |    42322      250     28 | 28.912 % |
|       475 |   62300   104932   262147 |    46554      475     58 | 28.912 % |
|       812 |   62300   104932   262147 |    51210      812     67 | 28.912 % |
|      1318 |   62300   104932   262147 |    56331     1318     53 | 28.912 % |
|      2077 |   62300   104932   262147 |    61964     2077     65 | 28.912 % |
|      3216 |   62300   104932   262147 |    68160     3216     73 | 28.912 % |
|      4924 |   50242    70364   177159 |    74977     4895     73 | 42.671 % |
|      7486 |   49785    68386   172541 |    82474     7436     65 | 43.192 % |
|     11330 |   49589    67469   170391 |    90722     9083     59 | 43.416 % |
===============================================================================
restarts              : 63
conflicts             : 16199          (7661 /sec)
decisions             : 50051          (0.00 % random) (23671 /sec)
propagations          : 23137043       (10942506 /sec)
conflict literals     : 807475         (44.88 % deleted)
Memory used           : 28.06 MB
CPU time              : 2.11442 s

UNSATISFIABLE
